
--- Job debug.gms Start 09/08/22 08:18:59 39.2.0 e0c5072f WEX-WEI x86 64bit/MS Windows
--- Applying:
    C:\GAMS\39\gmsprmNT.txt
--- GAMS Parameters defined
    Input C:\Users\tawfiq\Desktop\gams\others\debug.gms
    PageSize 0
    ScrDir C:\Users\tawfiq\Desktop\gams\others\225a\
    SysDir C:\GAMS\39\
    LogOption 3
    ErrMsg 1
    ErrorLog 99
    IDE 1
    LstTitleLeftAligned 1
Licensee: GAMS Demo license for TAWFIQ HAFIZI            G220605|0002CO-GEN
          Military Institute, Bangladesh                           DL068940
          C:\Users\tawfiq\Documents\GAMS\gamslice.txt
          tawfiqhasan58@gmail.com, TAWFIQ HAFIZI                           
          Demo license for demonstration and instructional purposes only
Processor information: 1 socket(s), 2 core(s), and 4 thread(s) available
GAMS 39.2.0   Copyright (C) 1987-2022 GAMS Development. All rights reserved
--- Starting compilation
--- debug.gms(318) 3 Mb
--- Starting execution: elapsed 0:00:00.016
--- Generating MIP model supplychainmodel
--- debug.gms(318) 4 Mb
---   1 rows  205 columns  205 non-zeroes
---   56 discrete-columns
--- Range statistics (absolute non-zero finite values)
--- RHS       [min, max] : [        NA,        NA] - Zero values observed as well
--- Bound     [min, max] : [ 1.000E+00, 1.000E+00] - Zero values observed as well
--- Matrix    [min, max] : [ 1.000E+00, 1.360E+02]
--- Executing CPLEX (Solvelink=2): elapsed 0:00:00.032

IBM ILOG CPLEX   39.2.0 e0c5072f Jun 2, 2022           WEI x86 64bit/MS Window

--- *** This solver runs with a demo license. No commercial use.
--- GMO setup time: 0.00s
--- Space for names approximately 0.01 Mb
--- Use option 'names no' to turn use of names off
--- GMO memory 0.52 Mb (peak 0.53 Mb)
--- Dictionary memory 0.00 Mb
--- Cplex 22.1.0.0 link memory 0.00 Mb (peak 0.02 Mb)
--- Starting Cplex

Version identifier: 22.1.0.0 | 2022-03-09 | 1a383f8ce
CPXPARAM_Advance                                 0
CPXPARAM_Simplex_Display                         2
CPXPARAM_Threads                                 1
CPXPARAM_MIP_Display                             4
CPXPARAM_MIP_Pool_Capacity                       0
CPXPARAM_MIP_Tolerances_AbsMIPGap                0
Generic callback                                 0x50
Found incumbent of value 0.000000 after 0.00 sec. (0.00 ticks)
Dual infeasible due to empty column 'yb1(vehicleC,collection-centerA,raw-materialA,day1)'.
Presolve time = 0.00 sec. (0.03 ticks)

Root node processing (before b&c):
  Real time             =    0.00 sec. (0.03 ticks)
Sequential b&c:
  Real time             =    0.00 sec. (0.00 ticks)
                          ------------
Total (root+branch&cut) =    0.00 sec. (0.03 ticks)

--- MIP status (118): integer unbounded.
--- Cplex Time: 0.00sec (det. 0.03 ticks)

--- Fixing integer variables and solving final LP...

Version identifier: 22.1.0.0 | 2022-03-09 | 1a383f8ce
CPXPARAM_Advance                                 2
CPXPARAM_Simplex_Display                         2
CPXPARAM_Threads                                 1
CPXPARAM_MIP_Display                             4
CPXPARAM_MIP_Pool_Capacity                       0
CPXPARAM_MIP_Tolerances_AbsMIPGap                0
Dual infeasible due to empty column 'yb1(vehicleC,collection-centerA,raw-materialA,day1)'.
Presolve time = 0.00 sec. (0.02 ticks)

--- Fixed MIP status (4): unbounded or infeasible.
--- Cplex Time: 0.00sec (det. 0.02 ticks)

*** WARNING: Presolve found the problem infeasible or unbounded
--- Rerunning with presolve turned off and solving with LPMETHOD=1.

Version identifier: 22.1.0.0 | 2022-03-09 | 1a383f8ce
CPXPARAM_Advance                                 2
CPXPARAM_Simplex_Display                         2
CPXPARAM_Preprocessing_Presolve                  0
CPXPARAM_LPMethod                                1
CPXPARAM_Threads                                 1
CPXPARAM_MIP_Display                             4
CPXPARAM_MIP_Pool_Capacity                       0
CPXPARAM_MIP_Tolerances_AbsMIPGap                0
Using devex.

--- Fixed MIP status (2): unbounded.
--- Cplex Time: 0.00sec (det. 0.02 ticks)

*** WARNING: Final solve did not return an optimal solution.
--- Returning a primal only solution to GAMS (marginals all set to NA).

Problem is unbounded
MIP Solution:            0.000000    (0 iterations, 0 nodes)
Final Solve:             0.000000    (0 iterations)

Best possible:               -inf
Absolute gap:                  na
Relative gap:                  na

--- Reading solution for model supplychainmodel
***
*** Solver did not provide marginals for model supplychainmodel
***
*** Status: Normal completion
--- Job debug.gms Stop 09/08/22 08:18:59 elapsed 0:00:00.078
